; benchmark generated from python API
(set-info :status unknown)
(declare-fun x_days () Int)
(assert
 (>= x_days (- 36525)))
(assert
 (<= x_days 36523))
(assert
 (>= x_days 8341))
(assert
 (<= x_days 8705))
(assert
 (let ((?x592 (+ x_days 730179)))
(let ((?x1809 (mod ?x592 146097)))
(let ((?x3642 (div ?x1809 36524)))
(let ((?x2987 (ite (<= 4 ?x3642) 3 ?x3642)))
(let ((?x2621 (- ?x1809 (* ?x2987 36524))))
(let ((?x3504 (mod ?x2621 1461)))
(let ((?x1622 (div ?x3504 365)))
(let ((?x2653 (ite (<= 4 ?x1622) 3 ?x1622)))
(let ((?x613 (+ (+ (* (div ?x592 146097) 400) (* ?x2987 100)) (* (div ?x2621 1461) 4))))
(let ((?x1846 (+ (+ ?x613 ?x2653) 1)))
(let (($x588 (or (and (= (mod ?x1846 4) 0) (and (distinct (mod ?x1846 100) 0) true)) (= (mod ?x1846 400) 0))))
(let ((?x558 (- ?x3504 (* ?x2653 365))))
(let ((?x690 (ite $x588 31 31)))
(let (($x3727 (>= ?x558 ?x690)))
(let ((?x500 (ite $x3727 (+ (- ?x558 ?x690) 1) (+ (- ?x558 (ite $x588 0 0)) 1))))
(let ((?x580 (ite $x588 60 59)))
(let (($x3433 (>= ?x558 ?x580)))
(let ((?x574 (ite $x588 91 90)))
(let (($x1811 (>= ?x558 ?x574)))
(let ((?x2865 (ite $x1811 (+ (- ?x558 ?x574) 1) (ite $x3433 (+ (- ?x558 ?x580) 1) ?x500))))
(let ((?x2180 (ite $x588 121 120)))
(let (($x2719 (>= ?x558 ?x2180)))
(let ((?x1189 (ite $x588 152 151)))
(let (($x1019 (>= ?x558 ?x1189)))
(let ((?x2842 (ite $x1019 (+ (- ?x558 ?x1189) 1) (ite $x2719 (+ (- ?x558 ?x2180) 1) ?x2865))))
(let ((?x739 (ite $x588 182 181)))
(let (($x1965 (>= ?x558 ?x739)))
(let ((?x1132 (ite $x588 213 212)))
(let (($x736 (>= ?x558 ?x1132)))
(let ((?x3613 (ite $x736 (+ (- ?x558 ?x1132) 1) (ite $x1965 (+ (- ?x558 ?x739) 1) ?x2842))))
(let ((?x1603 (ite $x588 244 243)))
(let (($x2899 (>= ?x558 ?x1603)))
(let ((?x1202 (ite $x588 274 273)))
(let (($x2428 (>= ?x558 ?x1202)))
(let ((?x1974 (ite $x2428 (+ (- ?x558 ?x1202) 1) (ite $x2899 (+ (- ?x558 ?x1603) 1) ?x3613))))
(let ((?x572 (ite $x588 305 304)))
(let (($x747 (>= ?x558 ?x572)))
(let ((?x408 (ite $x588 335 334)))
(let (($x764 (>= ?x558 ?x408)))
(let ((?x697 (ite $x764 (+ (- ?x558 ?x408) 1) (ite $x747 (+ (- ?x558 ?x572) 1) ?x1974))))
(let ((?x836 (ite $x2719 5 (ite $x1811 4 (ite $x3433 3 (ite $x3727 2 1))))))
(let ((?x2658 (ite $x2899 9 (ite $x736 8 (ite $x1965 7 (ite $x1019 6 ?x836))))))
(let ((?x824 (+ (ite $x764 12 (ite $x747 11 (ite $x2428 10 ?x2658))) (+ (* 0 12) 2))))
(let ((?x469 (- ?x824 1)))
(let ((?x1236 (+ (mod ?x469 12) 1)))
(let ((?x1530 (ite (or (= ?x1236 4) (= ?x1236 6) (= ?x1236 9) (= ?x1236 11)) 30 31)))
(let (($x3001 (and (= (mod (+ ?x1846 (+ 0 (div ?x469 12))) 4) 0) (and (distinct (mod (+ ?x1846 (+ 0 (div ?x469 12))) 100) 0) true))))
(let (($x1683 (or $x3001 (= (mod (+ ?x1846 (+ 0 (div ?x469 12))) 400) 0))))
(let ((?x859 (ite (= ?x1236 2) (ite $x1683 29 28) ?x1530)))
(let ((?x652 (ite (> 1 ?x697) 1 (ite (> ?x697 ?x859) ?x859 ?x697))))
(let ((?x559 (ite (> 1 ?x652) 1 (ite (> ?x652 ?x859) ?x859 ?x652))))
(let ((?x1209 (ite (= 2 ?x1236) (ite $x1683 31 31) (ite (= 1 ?x1236) (ite $x1683 0 0) 0))))
(let ((?x1821 (ite (= 4 ?x1236) (ite $x1683 91 90) (ite (= 3 ?x1236) (ite $x1683 60 59) ?x1209))))
(let ((?x2055 (ite (= 6 ?x1236) (ite $x1683 152 151) (ite (= 5 ?x1236) (ite $x1683 121 120) ?x1821))))
(let ((?x3122 (ite (= 8 ?x1236) (ite $x1683 213 212) (ite (= 7 ?x1236) (ite $x1683 182 181) ?x2055))))
(let ((?x1876 (ite (= 10 ?x1236) (ite $x1683 274 273) (ite (= 9 ?x1236) (ite $x1683 244 243) ?x3122))))
(let ((?x1411 (ite (= 12 ?x1236) (ite $x1683 335 334) (ite (= 11 ?x1236) (ite $x1683 305 304) ?x1876))))
(let ((?x1238 (+ (* 365 (- (+ ?x1846 (+ 0 (div ?x469 12))) 1)) (div (- (+ ?x1846 (+ 0 (div ?x469 12))) 1) 4))))
(let ((?x1585 (+ (- ?x1238 (div (- (+ ?x1846 (+ 0 (div ?x469 12))) 1) 100)) (div (- (+ ?x1846 (+ 0 (div ?x469 12))) 1) 400))))
(let ((?x1840 (+ (+ (- (+ (+ ?x1585 ?x1411) (- ?x559 1)) 730179) 0) 730179)))
(let ((?x2532 (mod ?x1840 146097)))
(let ((?x3622 (div ?x2532 36524)))
(let ((?x3706 (ite (<= 4 ?x3622) 3 ?x3622)))
(let ((?x724 (- ?x2532 (* ?x3706 36524))))
(let ((?x3598 (mod ?x724 1461)))
(let ((?x2476 (div ?x3598 365)))
(let ((?x3351 (ite (<= 4 ?x2476) 3 ?x2476)))
(let ((?x1461 (+ (+ (* (div ?x1840 146097) 400) (* ?x3706 100)) (* (div ?x724 1461) 4))))
(let ((?x3139 (+ (+ ?x1461 ?x3351) 1)))
(let (($x1465 (or (and (= (mod ?x3139 4) 0) (and (distinct (mod ?x3139 100) 0) true)) (= (mod ?x3139 400) 0))))
(let ((?x1540 (- ?x3598 (* ?x3351 365))))
(let ((?x1119 (ite $x1465 31 31)))
(let (($x3730 (>= ?x1540 ?x1119)))
(let ((?x1785 (ite $x3730 (+ (- ?x1540 ?x1119) 1) (+ (- ?x1540 (ite $x1465 0 0)) 1))))
(let ((?x2158 (ite $x1465 60 59)))
(let (($x1652 (>= ?x1540 ?x2158)))
(let ((?x2414 (ite $x1465 91 90)))
(let (($x1510 (>= ?x1540 ?x2414)))
(let ((?x2777 (ite $x1510 (+ (- ?x1540 ?x2414) 1) (ite $x1652 (+ (- ?x1540 ?x2158) 1) ?x1785))))
(let ((?x1916 (ite $x1465 121 120)))
(let (($x1195 (>= ?x1540 ?x1916)))
(let ((?x3428 (ite $x1465 152 151)))
(let (($x3520 (>= ?x1540 ?x3428)))
(let ((?x3621 (ite $x3520 (+ (- ?x1540 ?x3428) 1) (ite $x1195 (+ (- ?x1540 ?x1916) 1) ?x2777))))
(let ((?x1432 (ite $x1465 182 181)))
(let (($x2963 (>= ?x1540 ?x1432)))
(let ((?x3676 (ite $x1465 213 212)))
(let (($x2129 (>= ?x1540 ?x3676)))
(let ((?x2747 (ite $x2129 (+ (- ?x1540 ?x3676) 1) (ite $x2963 (+ (- ?x1540 ?x1432) 1) ?x3621))))
(let ((?x2440 (ite $x1465 244 243)))
(let (($x1869 (>= ?x1540 ?x2440)))
(let ((?x2093 (ite $x1465 274 273)))
(let (($x511 (>= ?x1540 ?x2093)))
(let ((?x467 (ite $x511 (+ (- ?x1540 ?x2093) 1) (ite $x1869 (+ (- ?x1540 ?x2440) 1) ?x2747))))
(let ((?x2197 (ite $x1465 305 304)))
(let (($x916 (>= ?x1540 ?x2197)))
(let ((?x3072 (ite $x1465 335 334)))
(let (($x1094 (>= ?x1540 ?x3072)))
(let ((?x665 (ite $x1094 (+ (- ?x1540 ?x3072) 1) (ite $x916 (+ (- ?x1540 ?x2197) 1) ?x467))))
(let (($x3277 (= 0 0)))
(let (($x1016 (= (mod (ite $x3277 (+ ?x1846 (+ 0 (div ?x469 12))) ?x3139) 400) 0)))
(let (($x719 (and (distinct (mod (ite $x3277 (+ ?x1846 (+ 0 (div ?x469 12))) ?x3139) 100) 0) true)))
(let (($x3689 (= (mod (ite $x3277 (+ ?x1846 (+ 0 (div ?x469 12))) ?x3139) 4) 0)))
(let (($x860 (or (and $x3689 $x719) $x1016)))
(let ((?x705 (ite $x1195 5 (ite $x1510 4 (ite $x1652 3 (ite $x3730 2 1))))))
(let ((?x2475 (ite $x1869 9 (ite $x2129 8 (ite $x2963 7 (ite $x3520 6 ?x705))))))
(let ((?x571 (ite $x3277 ?x1236 (ite $x1094 12 (ite $x916 11 (ite $x511 10 ?x2475))))))
(let ((?x3478 (ite (= 2 ?x571) (ite $x860 31 31) (ite (= 1 ?x571) (ite $x860 0 0) 0))))
(let ((?x712 (ite (= 4 ?x571) (ite $x860 91 90) (ite (= 3 ?x571) (ite $x860 60 59) ?x3478))))
(let ((?x1002 (ite (= 6 ?x571) (ite $x860 152 151) (ite (= 5 ?x571) (ite $x860 121 120) ?x712))))
(let ((?x977 (ite (= 8 ?x571) (ite $x860 213 212) (ite (= 7 ?x571) (ite $x860 182 181) ?x1002))))
(let ((?x711 (ite (= 10 ?x571) (ite $x860 274 273) (ite (= 9 ?x571) (ite $x860 244 243) ?x977))))
(let ((?x1043 (ite (= 12 ?x571) (ite $x860 335 334) (ite (= 11 ?x571) (ite $x860 305 304) ?x711))))
(let ((?x2118 (+ ?x1846 (+ 0 (div ?x469 12)))))
(let ((?x624 (ite $x3277 ?x2118 ?x3139)))
(let ((?x757 (- ?x624 1)))
(let ((?x2591 (+ (- (+ (* 365 ?x757) (div ?x757 4)) (div ?x757 100)) (div ?x757 400))))
(= (- (+ (+ ?x2591 ?x1043) (- (ite $x3277 ?x559 ?x665) 1)) 730179) (+ x_days 61))))))))))))))))))))))))))))))))))))))))))))))))))))))))))))))))))))))))))))))))))))))))))))))))))))))))))))))))))))))))
(check-sat)
